
Gurobi 9.1.2 (linux64) logging started Mon Jul  5 21:01:54 2021


Gurobi 9.1.2 (linux64) logging started Mon Jul  5 21:02:01 2021

Gurobi Optimizer version 9.1.2 build v9.1.2rc0 (linux64)
Thread count: 40 physical cores, 40 logical processors, using up to 32 threads
Optimize a model with 3118434 rows, 1314095 columns and 9410455 nonzeros
Model fingerprint: 0xc9a8f282
Coefficient statistics:
  Matrix range     [3e-04, 1e+00]
  Objective range  [1e+01, 4e+05]
  Bounds range     [4e-04, 8e+06]
  RHS range        [6e+00, 3e+07]

Concurrent LP optimizer: primal simplex, dual simplex, and barrier
Showing barrier log only...

Presolve removed 2332010 rows and 228780 columns (presolve time = 5s) ...
Presolve removed 2375441 rows and 272550 columns (presolve time = 10s) ...
Presolve removed 2406306 rows and 303664 columns (presolve time = 15s) ...
Presolve removed 2413206 rows and 311022 columns (presolve time = 20s) ...
Presolve removed 2420696 rows and 318893 columns (presolve time = 25s) ...
Presolve removed 2430492 rows and 329102 columns (presolve time = 30s) ...
Presolve removed 2443009 rows and 342217 columns (presolve time = 35s) ...
Presolve removed 2451858 rows and 351567 columns (presolve time = 40s) ...
Presolve removed 2454649 rows and 354704 columns (presolve time = 45s) ...
Presolve removed 2457483 rows and 357873 columns (presolve time = 50s) ...
Presolve removed 2460275 rows and 361015 columns (presolve time = 55s) ...
Presolve removed 2463109 rows and 364205 columns (presolve time = 60s) ...
Presolve removed 2466205 rows and 367607 columns (presolve time = 65s) ...
Presolve removed 2469272 rows and 370999 columns (presolve time = 70s) ...
Presolve removed 2472423 rows and 374469 columns (presolve time = 75s) ...
Presolve removed 2475511 rows and 377875 columns (presolve time = 80s) ...
Presolve removed 2478553 rows and 381254 columns (presolve time = 85s) ...
Presolve removed 2481636 rows and 384637 columns (presolve time = 90s) ...
Presolve removed 2484920 rows and 388219 columns (presolve time = 95s) ...
Presolve removed 2488452 rows and 392081 columns (presolve time = 100s) ...
Presolve removed 2491528 rows and 395527 columns (presolve time = 105s) ...
Presolve removed 2494742 rows and 399047 columns (presolve time = 110s) ...
Presolve removed 2498090 rows and 402717 columns (presolve time = 115s) ...
Presolve removed 2503509 rows and 408457 columns (presolve time = 120s) ...
Presolve removed 2509084 rows and 414334 columns (presolve time = 125s) ...
Presolve removed 2516356 rows and 421896 columns (presolve time = 130s) ...
Presolve removed 2523598 rows and 429434 columns (presolve time = 135s) ...
Presolve removed 2528108 rows and 434174 columns (presolve time = 140s) ...
Presolve removed 2548950 rows and 455283 columns (presolve time = 145s) ...
Presolve removed 2553765 rows and 460679 columns (presolve time = 150s) ...
Presolve removed 2557653 rows and 465171 columns (presolve time = 155s) ...
Presolve removed 2562332 rows and 470243 columns (presolve time = 160s) ...
Presolve removed 2566435 rows and 474943 columns (presolve time = 165s) ...
Presolve removed 2569636 rows and 478850 columns (presolve time = 170s) ...
Presolve removed 2572970 rows and 482886 columns (presolve time = 175s) ...
Presolve removed 2576599 rows and 487087 columns (presolve time = 180s) ...
Presolve removed 2580239 rows and 491307 columns (presolve time = 185s) ...
Presolve removed 2583496 rows and 495310 columns (presolve time = 190s) ...
Presolve removed 2597426 rows and 509911 columns (presolve time = 195s) ...
Presolve removed 2616170 rows and 709018 columns (presolve time = 201s) ...
Presolve removed 2826558 rows and 709818 columns
Presolve time: 203.27s
Presolved: 291876 rows, 814609 columns, 1965186 nonzeros

Ordering time: 0.45s

Barrier statistics:
 AA' NZ     : 1.109e+06
 Factor NZ  : 8.920e+06 (roughly 500 MBytes of memory)
 Factor Ops : 6.658e+08 (less than 1 second per iteration)
 Threads    : 30

                  Objective                Residual
Iter       Primal          Dual         Primal    Dual     Compl     Time
   0   7.40700462e+13 -5.23064038e+12  4.79e+11 4.71e+02  5.75e+09   212s
   1   6.58921276e+13 -5.14176895e+12  1.11e+11 1.52e+02  1.36e+09   218s
   2   3.11207582e+12 -5.02770180e+12  1.97e+09 1.59e-12  2.89e+07   227s
   3   1.56642253e+12 -1.68082032e+12  2.58e+08 1.86e-11  4.93e+06   238s
   4   1.35219226e+12  1.56417437e+11  2.22e+07 5.43e-11  9.74e+05   247s
   5   1.29857734e+12  9.20355045e+11  6.81e+06 1.55e-11  3.04e+05   254s
   6   1.25625249e+12  1.03912193e+12  1.89e+06 9.78e-12  1.54e+05   261s
   7   1.24726495e+12  1.19946650e+12  5.27e+05 4.16e-12  3.54e+04   268s
   8   1.24492420e+12  1.23220910e+12  1.27e+05 2.11e-12  9.33e+03   274s
   9   1.24392527e+12  1.24368869e+12  4.99e+03 2.57e-12  2.07e+02   284s
  10   1.24386353e+12  1.24384928e+12  5.47e+02 6.82e-12  1.50e+01   291s
  11   1.24385604e+12  1.24385408e+12  1.63e+01 3.07e-12  1.36e+00   300s
  12   1.24385573e+12  1.24385533e+12  1.29e+00 2.89e-07  2.51e-01   307s
  13   1.24385566e+12  1.24385557e+12  2.84e-01 9.10e-08  5.74e-02   315s
  14   1.24385563e+12  1.24385560e+12  6.04e-02 5.61e-08  1.97e-02   323s
  15   1.24385563e+12  1.24385562e+12  1.15e-02 2.28e-08  4.86e-03   332s
  16   1.24385563e+12  1.24385562e+12  4.40e-03 1.25e-08  2.22e-03   338s
  17   1.24385563e+12  1.24385562e+12  1.84e-04 5.72e-09  5.68e-04   347s
  18   1.24385563e+12  1.24385563e+12  1.75e-04 8.45e-10  5.25e-05   354s
  19   1.24385563e+12  1.24385563e+12  6.14e-10 2.70e-11  6.08e-07   366s
  20   1.24385563e+12  1.24385563e+12  2.72e-04 1.23e-12  6.11e-10   380s

Barrier solved model in 20 iterations and 380.51 seconds
Optimal objective 1.24385563e+12

Crossover log...

  163902 DPushes remaining with DInf 0.0000000e+00               389s
       0 DPushes remaining with DInf 0.0000000e+00               390s
Warning: Markowitz tolerance tightened to 0.5

  326056 PPushes remaining with PInf 0.0000000e+00               390s
  128538 PPushes remaining with PInf 0.0000000e+00               391s
   70282 PPushes remaining with PInf 0.0000000e+00               395s
   46974 PPushes remaining with PInf 0.0000000e+00               400s

Solved with dual simplex
Solved in 99817 iterations and 401.00 seconds
Optimal objective  1.243855626e+12

User-callback calls 354733, time in user-callback 0.29 sec
